RT is False
Default write of storage_offers_DA.csv just to have a file (but constraint should be inactive)
Reading model...
...model read.
creating competitive generators file...
...competitive generators recorded.
Loading data...
.. day-ahead data read.
Compiling instance...
...instance created.
Creating Offer Mitigation (model will solve as dispatch if TRUE)...
NOTE: storage offers will not be mitigated
...storage offer mitigation file created
Converting model to MPEC...
...converted
NOTE: initial MIP solve with only storage competitive to get feasible solution
Solving...

Welcome to IBM(R) ILOG(R) CPLEX(R) Interactive Optimizer 12.9.0.0
  with Simplex, Mixed Integer & Barrier Optimizers
5725-A06 5725-A29 5724-Y48 5724-Y49 5724-Y54 5724-Y55 5655-Y21
Copyright IBM Corp. 1988, 2019.  All Rights Reserved.

Type 'help' for a list of available commands.
Type 'help' followed by a command name for more
information on commands.

CPLEX> Logfile 'cplex.log' closed.
Logfile 'C:\Users\llavin\Desktop\test919\logs\tmp5y00by_g.cplex.log' open.
CPLEX> New value for parallel optimization mode: -1
CPLEX> New value for mixed integer optimality gap tolerance: 0.01
CPLEX> New value for integrality tolerance: 1e-09
CPLEX> New value for feasibility tolerance: 0.01
CPLEX> New value for deterministic time limit in ticks: 75000
CPLEX> Problem 'C:\Users\llavin\Desktop\test919\logs\tmpvwiah487.pyomo.lp' read.
Read time = 0.22 sec. (14.73 ticks)
CPLEX> Problem name         : C:\Users\llavin\Desktop\test919\logs\tmpvwiah487.pyomo.lp
Objective sense      : Maximize
Variables            :   53805  [Nneg: 1,  Box: 22000,  Free: 4464,
                                 Binary: 27340]
Objective nonzeros   :    9058
Linear constraints   :  123205  [Less: 41346,  Greater: 59096,  Equal: 22763]
  Nonzeros           :  291782
  RHS nonzeros       :   67520

Variables            : Min LB: -5000.000        Max UB: 1000000.       
Objective nonzeros   : Min   : 0.1000000        Max   : 2500.000       
Linear constraints   :
  Nonzeros           : Min   : 0.1000000        Max   : 1000000.       
  RHS nonzeros       : Min   : 0.1000000        Max   : 1000000.       
CPLEX> CPXPARAM_Parallel                                -1
CPXPARAM_Simplex_Tolerances_Feasibility          0.01
CPXPARAM_DetTimeLimit                            75000
CPXPARAM_MIP_Tolerances_MIPGap                   0.01
CPXPARAM_MIP_Tolerances_Integrality              1.0000000000000001e-09
Tried aggregator 3 times.
MIP Presolve eliminated 88601 rows and 18958 columns.
MIP Presolve added 3400 rows and 0 columns.
MIP Presolve modified 24819 coefficients.
Aggregator did 12939 substitutions.
Reduced MIP has 25065 rows, 21385 columns, and 71406 nonzeros.
Reduced MIP has 8443 binaries, 0 generals, 0 SOSs, and 0 indicators.
Presolve time = 0.30 sec. (176.29 ticks)
Probing fixed 383 vars, tightened 2887 bounds.
Probing time = 1.27 sec. (910.08 ticks)
Tried aggregator 2 times.
MIP Presolve eliminated 866 rows and 766 columns.
MIP Presolve modified 2242 coefficients.
Aggregator did 39 substitutions.
Reduced MIP has 24160 rows, 20580 columns, and 68791 nonzeros.
Reduced MIP has 8060 binaries, 0 generals, 0 SOSs, and 0 indicators.
Presolve time = 0.09 sec. (71.12 ticks)
Probing time = 0.03 sec. (17.07 ticks)
Clique table members: 6423.
MIP emphasis: balance optimality and feasibility.
MIP search method: dynamic search.
Parallel mode: opportunistic, using up to 32 threads.
Root relaxation solution time = 0.42 sec. (315.13 ticks)

        Nodes                                         Cuts/
   Node  Left     Objective  IInf  Best Integer    Best Bound    ItCnt     Gap

      0     0      318.0982  2204                    318.0982     7134         
      0     0      318.0982    11                    Cuts: 29     7153         
      0     0      312.7439    10                     Cuts: 6     7158         
      0     0      312.7439    11                 Flowcuts: 2     7160         
      0     0      308.9359    10                     Cuts: 2     7163         
      0     0      307.0961    12                     Cuts: 4     7167         
      0     0      296.5692    10                     Cuts: 4     7169         
      0     0      294.9648    12                 Flowcuts: 1     7170         
      0     3    infeasible                           Cuts: 2     7233         
Elapsed time = 9.08 sec. (5569.50 ticks, tree = 0.02 MB, solutions = 0)
*   366+  265                       -47103.9687      246.8701           100.52%
    741   367   -20914.2284     7   -33724.7861      246.8701    14130  100.73%
   1167   400        cutoff         -33724.7861      246.8701    14416  100.73%
   1552   805   -13181.9063     8   -33724.7861      246.8701    17161  100.73%
   1889   985     -336.2321     8   -33724.7861      246.8701    18334  100.73%
   2236  1076     -268.3795     8     -268.3795      246.8701    19164  191.99%
   2548  1223     -177.6697     7     -268.3795      246.8701    20022  191.99%
   2827   778      122.6764     9     -197.4850      246.8701    20360  225.01%
   3161   604      240.4220     8     -197.4850      246.8701    20994  225.01%
   4298   817     -154.9012     8     -169.2932      246.8701    23504  245.82%
Elapsed time = 23.59 sec. (8628.79 ticks, tree = 3.85 MB, solutions = 7)
   5265  1002      236.5822     8      208.4279      240.4220    24866   15.35%
   6290   595        cutoff            208.4279      240.4220    26545   15.35%
   6918   558      240.4220     2      208.4279      240.4220    28577   15.35%
   7557   770      211.2496     7      208.4279      240.4220    30824   15.35%
   8144   972      231.7196     4      208.4279      240.4220    31668   15.35%
*  8191   804      integral     0      208.4279      208.4279    37587    0.00%

Clique cuts applied:  20
Cover cuts applied:  1
Implied bound cuts applied:  42
Flow cuts applied:  40
Mixed integer rounding cuts applied:  40
Gomory fractional cuts applied:  80

Root node processing (before b&c):
  Real time             =    8.30 sec. (5568.18 ticks)
Parallel b&c, 32 threads:
  Real time             =   30.64 sec. (9200.98 ticks)
  Sync time (average)   =    1.00 sec.
  Wait time (average)   =    0.00 sec.
                          ------------
Total (root+branch&cut) =   38.94 sec. (14769.16 ticks)

Solution pool: 9 solutions saved.

MIP - Integer optimal solution:  Objective =  2.0842794160e+02
Solution time =   38.97 sec.  Iterations = 37587  Nodes = 8191
Deterministic time = 14769.31 ticks  (379.00 ticks/sec)

CPLEX> Incumbent solution written to file 'C:\Users\llavin\Desktop\test919\logs\tmpe4thi617.cplex.sol'.
CPLEX> NOTE: no warmstart specified for MIP iteration, default behavior is true
NOTE: resolving with all competitive generators using storage-only solution to warmstart
Solving...

Welcome to IBM(R) ILOG(R) CPLEX(R) Interactive Optimizer 12.9.0.0
  with Simplex, Mixed Integer & Barrier Optimizers
5725-A06 5725-A29 5724-Y48 5724-Y49 5724-Y54 5724-Y55 5655-Y21
Copyright IBM Corp. 1988, 2019.  All Rights Reserved.

Type 'help' for a list of available commands.
Type 'help' followed by a command name for more
information on commands.

CPLEX> Logfile 'cplex.log' closed.
Logfile 'C:\Users\llavin\Desktop\test919\logs\tmpxcq57qgl.cplex.log' open.
CPLEX> New value for parallel optimization mode: -1
CPLEX> New value for mixed integer optimality gap tolerance: 0.01
CPLEX> New value for integrality tolerance: 1e-09
CPLEX> New value for feasibility tolerance: 0.01
CPLEX> New value for deterministic time limit in ticks: 75000
CPLEX> Problem 'C:\Users\llavin\Desktop\test919\logs\tmpkehss1u2.pyomo.lp' read.
Read time = 0.25 sec. (14.75 ticks)
CPLEX> MIP start file 'C:\Users\llavin\Desktop\test919\logs\tmpm46re_n9.cplex.mst' read.
CPLEX> Problem name         : C:\Users\llavin\Desktop\test919\logs\tmpkehss1u2.pyomo.lp
Objective sense      : Maximize
Variables            :   54525  [Nneg: 1,  Box: 22720,  Free: 4464,
                                 Binary: 27340]
Objective nonzeros   :    9759
Linear constraints   :  123205  [Less: 41346,  Greater: 59096,  Equal: 22763]
  Nonzeros           :  291782
  RHS nonzeros       :   67520

Variables            : Min LB: -5000.000        Max UB: 1000000.       
Objective nonzeros   : Min   : 0.3000000        Max   : 2500.000       
Linear constraints   :
  Nonzeros           : Min   : 0.1000000        Max   : 1000000.       
  RHS nonzeros       : Min   : 0.1000000        Max   : 1000000.       
CPLEX> CPXPARAM_Parallel                                -1
CPXPARAM_Simplex_Tolerances_Feasibility          0.01
CPXPARAM_DetTimeLimit                            75000
CPXPARAM_MIP_Tolerances_MIPGap                   0.01
CPXPARAM_MIP_Tolerances_Integrality              1.0000000000000001e-09
Warning:  No solution found from 1 MIP starts.
Retaining values of one MIP start for possible repair.
Tried aggregator 3 times.
MIP Presolve eliminated 88601 rows and 19678 columns.
MIP Presolve added 3400 rows and 0 columns.
MIP Presolve modified 24819 coefficients.
Aggregator did 12939 substitutions.
Reduced MIP has 25065 rows, 21385 columns, and 71406 nonzeros.
Reduced MIP has 8443 binaries, 0 generals, 0 SOSs, and 0 indicators.
Presolve time = 0.28 sec. (176.66 ticks)
Probing fixed 383 vars, tightened 2887 bounds.
Probing time = 1.25 sec. (910.08 ticks)
Tried aggregator 2 times.
MIP Presolve eliminated 866 rows and 766 columns.
MIP Presolve modified 2242 coefficients.
Aggregator did 39 substitutions.
Reduced MIP has 24160 rows, 20580 columns, and 68791 nonzeros.
Reduced MIP has 8060 binaries, 0 generals, 0 SOSs, and 0 indicators.
Presolve time = 0.11 sec. (71.13 ticks)
Probing time = 0.03 sec. (17.07 ticks)
Clique table members: 6423.
MIP emphasis: balance optimality and feasibility.
MIP search method: dynamic search.
Parallel mode: opportunistic, using up to 32 threads.
Root relaxation solution time = 0.39 sec. (298.35 ticks)

        Nodes                                         Cuts/
   Node  Left     Objective  IInf  Best Integer    Best Bound    ItCnt     Gap

      0     0    72111.3796  2303                  72111.3796     6912         
      0     0    71124.1740   746                   Cuts: 965     7373         
      0     0    70816.4004   574                   Cuts: 701     7650         
      0     0    70665.3993   497                   Cuts: 372     7813         
      0     0    70644.3439   468                   Cuts: 133     7876         
      0     0    70628.8439   461                    Cuts: 99     7898         
      0     0    70576.3805   453                    Cuts: 34     7910         
      0     0    70576.3805   452                    Cuts: 23     7917         
      0     0    70571.1469   454                    Cuts: 20     7920         
Repair heuristic found nothing.
      0     2    70571.1469   454                    Cuts: 16     7920         
Elapsed time = 12.61 sec. (6955.99 ticks, tree = 0.02 MB, solutions = 0)
    327    71    52569.5233   354                  69133.0319     8859         
    764   579    26343.1743   357                  69133.0319    25443         
   1263   454    31288.6486   362                  69133.0319    20741         
   1919   910     2844.9555   297                  69133.0319    36911         
   2558  1511    23254.7926   282                  69133.0319    49356         
   3323  1743    22184.1381   287                  69133.0319    54390         
   4029  2301   -27290.8959   269                  69133.0319    60014         
   4872  3783    18608.2516   234                  69133.0319    68561         
   5894  4608   -47823.0864   263                  69133.0319    70647         
   9392  7566    18816.2713   184                  68178.5327    77139         
Elapsed time = 30.14 sec. (10057.41 ticks, tree = 115.50 MB, solutions = 0)
* 10768+ 2406                        22892.4815    68178.5327           197.82%
  13812  2583    24401.2636   309    22892.4815    66929.8118    86789  192.37%
  13949  4083        cutoff          22892.4815    32188.0693   108139   40.61%
  15606   484        cutoff          22892.4815    26807.2664   114440   17.10%
  17071  1667    24499.9204   105    22892.4815    26806.2768   128175   17.10%
  19157  1703        cutoff          22892.4815    24015.1613   156588    4.90%
  20484   812        cutoff          22892.4815    23385.1411   168179    2.15%

GUB cover cuts applied:  2
Clique cuts applied:  42
Cover cuts applied:  17
Implied bound cuts applied:  43
Flow cuts applied:  476
Mixed integer rounding cuts applied:  50
Zero-half cuts applied:  1
Gomory fractional cuts applied:  66

Root node processing (before b&c):
  Real time             =   10.88 sec. (6910.08 ticks)
Parallel b&c, 32 threads:
  Real time             =   51.88 sec. (13769.17 ticks)
  Sync time (average)   =    2.02 sec.
  Wait time (average)   =    0.24 sec.
                          ------------
Total (root+branch&cut) =   62.75 sec. (20679.25 ticks)

Solution pool: 10 solutions saved.

MIP - Integer optimal, tolerance (0.01/1e-06):  Objective =  2.2892481457e+04
Current MIP best bound =  2.3114148202e+04 (gap = 221.667, 0.97%)
Solution time =   62.81 sec.  Iterations = 170595  Nodes = 20529 (263)
Deterministic time = 20679.41 ticks  (329.23 ticks/sec)

CPLEX> Incumbent solution written to file 'C:\Users\llavin\Desktop\test919\logs\tmp5clfwule.cplex.sol'.
CPLEX> Exporting results... 
